3 15
460 378 343 
0 88 79 107 97 18 16 26 40 97 9 88 15 2
1 43 35 69 78 16 12 81 44 7 30 38 46 3
2 41 33 5 4 80 74 64 81 52 70 96 41 3
3 93 98 52 53 101 99 65 67 62 69 16 57 2
4 13 23 80 74 26 16 47 49 89 8 9 56 2
5 67 69 14 15 69 70 1 66 17 89 16 77 2
6 60 60 81 87 23 13 52 51 73 20 44 41 2
7 63 67 1 5 41 44 8 47 91 33 96 35 2
8 30 32 107 99 71 73 39 43 66 29 73 14 2
9 72 73 28 20 79 74 52 4 75 17 15 99 1
10 96 99 37 37 94 84 59 92 85 85 30 51 1
11 75 82 102 93 1 3 12 99 60 48 84 42 3
12 10 11 59 54 14 4 28 99 36 39 98 19 2
13 64 63 14 10 54 48 87 80 46 22 80 44 1
14 106 96 23 30 53 57 32 67 19 29 40 98 3
